\Problem name: k_cluster_00000001.LP

Maximize
 obj: 0.300000011920929 x1 + 0.200000002980232 x2
Subject To
 c1:  x1 - x3 <= 0
 c2:  x1 - x5 <= 0
 c3:  x1 - x3 - x5 >= -1
 c4:  x2 - x4 <= 0
 c5:  x2 - x5 <= 0
 c6:  x2 - x4 - x5 >= -1
 c7:  x3  = 1
 c8:  x4  = 1
 c9:  x5  = 1
 c10: x6  = 1
 c11: x7  = 1
 c12: x3 + x4 + x5 + x6 + x7 >= 1
Bounds
 0 <= x1 <= 1
 0 <= x2 <= 1
 0 <= x3 <= 1
 0 <= x4 <= 1
 0 <= x5 <= 1
 0 <= x6 <= 1
 0 <= x7 <= 1
Binaries
 x1  x2  x3  x4  x5  x6  x7 
End
